param: T : PD           fGD     cOS:=
#         [kW]              [R$/kWh]
   1    158.9   0.000000000   0.435
   2    157.7   0.000000000   0.435
   3    180.0   0.000000000   0.435
   4    180.3   0.000000000   0.435
   5    184.7   0.000000000   0.435
   6    159.1   0.000403478   0.435
   7    130.3   0.021839784   0.435
   8     98.5   0.162691836   0.435
   9    105.9   0.371420561   0.435
  10    193.7   0.561875517   0.435
  11    201.0   0.667180143   0.435
  12    230.4   0.728490720   0.435
  13    245.8   0.715147406   0.435
  14    284.0   0.673689545   0.435
  15    378.0   0.585161204   0.435
  16    418.6   0.441333950   0.435
  17    366.2   0.274392455   0.435
  18    351.1   0.132082341   0.582
  19    419.8   0.088886594   0.903
  20    454.0   0.010857717   0.903
  21    433.8   0.000000000   0.903
  22    369.2   0.000000000   0.582
  23    292.3   0.000000000   0.435
  24    194.2   0.000000000   0.435
;

param: C :  p:=
#          [%]
   0    0.985
  18    0.005 
  20    0.005 
  22    0.005 
;

param delta := 1; # horas

param PSmax := 1000; # kW

param IPGDmax := 400; # kW

param cIGD := 900; # R$/kW

param cCC := 1500; # R$/kWh

param D := 2; # horas

param cIT := 2000; # R$/kW

param cOT := 1.280; # R$/kWh

param IPTmax := 100; # kW

param cIPA := 2000; # R$/kW

param cIEA := 2000; # R$/kWh

param EAE0 := 0; # kWh   

param alpha := 0.95; # porcentagem   

param beta := 0.05; # porcentagem